global(29).

train(0). start(0,(0,1),0,e).    end(0,(4,3),40).    speed(0,1).
train(1). start(1,(1,4),0,s).   end(1,(0,1),40).     speed(1,1).


cell((0,0), 16386).
cell((0,1), 1025).
cell((0,2), 5633).
cell((0,3), 1025).
cell((0,4), 4608).


cell((1,0), 72).
cell((1,1), 4608).
cell((1,2), 32800).
cell((1,3), 0).
cell((1,4), 32800).


cell((2,0), 0).
cell((2,1), 32872).
cell((2,2), 33825).
cell((2,3), 1025).
cell((2,4), 34864).

cell((3,0), 0).
cell((3,1), 32800).
cell((3,2), 32800).
cell((3,3), 0).
cell((3,4), 32800).

cell((4,0), 0).
cell((4,1), 72).
cell((4,2), 1097).
cell((4,3), 1025).
cell((4,4), 2064).
