
global(50).

train(0). start(0,(0,2),0,e).    goal(0,(0,15),20).    speed(0,1).
train(1). start(1,(0,15),0,w).   goal(1,(0,2),20).     speed(1,1).


cell((0,0), 16386).
cell((0,1), 1025).
cell((0,2), 1025).
cell((0,3), 4608).
cell((0,4), 0).
cell((0,5), 0).
cell((0,6), 0).
cell((0,7), 0).
cell((0,8), 0).
cell((0,9), 0).
cell((0,10), 0).
cell((0,11), 0).
cell((0,12), 0).
cell((0,13), 0).
cell((0,14), 16386).
cell((0,15), 1025).
cell((0,16), 1025).
cell((0,17), 4608).

cell((1,0), 32800).
cell((1,1), 0).
cell((1,2), 0).
cell((1,3), 32800).
cell((1,4), 0).
cell((1,5), 0).
cell((1,6), 0).
cell((1,7), 0).
cell((1,8), 0).
cell((1,9), 0).
cell((1,10), 0).
cell((1,11), 0).
cell((1,12), 0).
cell((1,13), 0).
cell((1,14), 32800).
cell((1,15), 0).
cell((1,16), 0).
cell((1,17), 32800).

cell((2,0), 72).
cell((2,1), 1025).
cell((2,2), 1025).
cell((2,3), 1097).
cell((2,4), 1025).
cell((2,5), 1025).
cell((2,6), 1025).
cell((2,7), 1025).
cell((2,8), 1025).
cell((2,9), 1025).
cell((2,10), 1025).
cell((2,11), 1025).
cell((2,12), 1025).
cell((2,13), 1025).
cell((2,14), 3089).
cell((2,15), 1025).
cell((2,16), 1025).
cell((2,17), 2064).

